\ This file was automatically generated by Zimpl
\ var x1 >= 0;
\ var x2 >= 0;
\ var x3 >= 0;
\ minimize Z:     8*x1 + 7*x2 + 3*x3;
\ subto r1:     2*x1 + 1*x2 + 0*x3 >= 4;
\ subto r2:     1*x1 + 2*x2 + 1*x3 >= 5;
\Problem name: pp
Minimize
 Z:  +8 x1 +7 x2 +3 x3
Subject to
 r1_1:
  + x2 +2 x1 >= 4
 r2_1:
  + x3 +2 x2 + x1 >= 5
Bounds
 0 <= x1 <= +inf
 0 <= x2 <= +inf
 0 <= x3 <= +inf
End
